62
1 0 8
2 0 9
2 1 11
3 0 15
3 1 14
3 2 14
4 0 19
4 1 15
4 2 15
4 3 9
5 0 19
5 1 3
5 2 12
5 3 3
5 4 6
6 0 17
6 1 2
6 2 12
6 3 11
6 4 16
6 5 1
7 0 17
7 1 10
7 2 8
7 3 6
7 4 10
7 5 13
7 6 18
8 0 9
8 1 9
8 2 3
8 3 3
8 4 9
8 5 11
8 6 4
8 7 4
9 0 16
9 1 5
9 2 5
9 3 7
9 4 10
9 5 18
9 6 11
9 7 11
9 8 14
10 0 8
10 1 13
10 2 4
10 3 16
10 4 15
10 5 18
10 6 5
10 7 12
10 8 10
10 9 18
11 0 2
11 1 5
11 2 1
11 3 8
11 4 2
11 5 15
11 6 8
11 7 16
11 8 13
11 9 3
11 10 18
12 0 5
12 1 6
12 2 11
12 3 15
12 4 6
12 5 4
12 6 15
12 7 7
12 8 11
12 9 13
12 10 3
12 11 2
13 0 5
13 1 16
13 2 15
13 3 17
13 4 6
13 5 18
13 6 11
13 7 4
13 8 8
13 9 4
13 10 17
13 11 11
13 12 7
14 0 19
14 1 11
14 2 4
14 3 8
14 4 18
14 5 17
14 6 13
14 7 7
14 8 14
14 9 8
14 10 4
14 11 16
14 12 13
14 13 9
15 0 15
15 1 8
15 2 3
15 3 10
15 4 1
15 5 3
15 6 17
15 7 15
15 8 19
15 9 5
15 10 1
15 11 6
15 12 19
15 13 4
15 14 16
16 0 14
16 1 16
16 2 1
16 3 11
16 4 13
16 5 14
16 6 2
16 7 14
16 8 12
16 9 12
16 10 19
16 11 2
16 12 13
16 13 19
16 14 18
16 15 4
17 0 4
17 1 2
17 2 9
17 3 5
17 4 18
17 5 6
17 6 14
17 7 9
17 8 8
17 9 6
17 10 15
17 11 11
17 12 4
17 13 18
17 14 7
17 15 4
17 16 17
18 0 11
18 1 12
18 2 6
18 3 10
18 4 9
18 5 11
18 6 18
18 7 3
18 8 18
18 9 8
18 10 17
18 11 18
18 12 17
18 13 19
18 14 1
18 15 8
18 16 15
18 17 11
19 0 10
19 1 6
19 2 1
19 3 10
19 4 10
19 5 5
19 6 13
19 7 8
19 8 6
19 9 19
19 10 15
19 11 2
19 12 5
19 13 13
19 14 10
19 15 4
19 16 13
19 17 10
19 18 8
20 0 10
20 1 3
20 2 5
20 3 17
20 4 4
20 5 2
20 6 4
20 7 16
20 8 7
20 9 6
20 10 13
20 11 10
20 12 18
20 13 9
20 14 12
20 15 4
20 16 12
20 17 13
20 18 17
20 19 11
21 0 13
21 1 12
21 2 2
21 3 15
21 4 1
21 5 11
21 6 10
21 7 5
21 8 1
21 9 4
21 10 5
21 11 11
21 12 18
21 13 8
21 14 3
21 15 14
21 16 11
21 17 4
21 18 5
21 19 12
21 20 6
22 0 9
22 1 17
22 2 5
22 3 14
22 4 9
22 5 1
22 6 5
22 7 3
22 8 18
22 9 12
22 10 12
22 11 1
22 12 18
22 13 14
22 14 9
22 15 12
22 16 1
22 17 9
22 18 13
22 19 18
22 20 3
22 21 15
23 0 4
23 1 5
23 2 3
23 3 10
23 4 7
23 5 7
23 6 16
23 7 18
23 8 14
23 9 11
23 10 6
23 11 16
23 12 16
23 13 3
23 14 10
23 15 11
23 16 4
23 17 6
23 18 11
23 19 7
23 20 14
23 21 13
23 22 19
24 0 8
24 1 9
24 2 2
24 3 14
24 4 9
24 5 3
24 6 9
24 7 2
24 8 17
24 9 2
24 10 15
24 11 18
24 12 4
24 13 5
24 14 11
24 15 9
24 16 8
24 17 3
24 18 8
24 19 14
24 20 3
24 21 12
24 22 18
24 23 1
25 0 18
25 1 19
25 2 14
25 3 17
25 4 2
25 5 12
25 6 5
25 7 2
25 8 2
25 9 5
25 10 19
25 11 13
25 12 9
25 13 1
25 14 4
25 15 4
25 16 7
25 17 14
25 18 15
25 19 3
25 20 19
25 21 2
25 22 11
25 23 10
25 24 8
26 0 1
26 1 1
26 2 6
26 3 14
26 4 14
26 5 7
26 6 10
26 7 2
26 8 13
26 9 15
26 10 15
26 11 5
26 12 13
26 13 13
26 14 8
26 15 6
26 16 19
26 17 11
26 18 13
26 19 17
26 20 11
26 21 2
26 22 8
26 23 8
26 24 16
26 25 1
27 0 16
27 1 6
27 2 13
27 3 8
27 4 12
27 5 13
27 6 12
27 7 15
27 8 6
27 9 2
27 10 5
27 11 16
27 12 9
27 13 8
27 14 1
27 15 16
27 16 18
27 17 15
27 18 13
27 19 18
27 20 8
27 21 17
27 22 4
27 23 12
27 24 16
27 25 17
27 26 12
28 0 12
28 1 12
28 2 14
28 3 7
28 4 18
28 5 10
28 6 6
28 7 11
28 8 1
28 9 18
28 10 17
28 11 18
28 12 10
28 13 8
28 14 10
28 15 9
28 16 16
28 17 3
28 18 2
28 19 5
28 20 11
28 21 3
28 22 10
28 23 14
28 24 13
28 25 12
28 26 14
28 27 11
29 0 7
29 1 15
29 2 10
29 3 9
29 4 5
29 5 8
29 6 18
29 7 2
29 8 13
29 9 19
29 10 3
29 11 19
29 12 12
29 13 12
29 14 6
29 15 12
29 16 16
29 17 8
29 18 8
29 19 7
29 20 10
29 21 7
29 22 6
29 23 16
29 24 3
29 25 10
29 26 10
29 27 17
29 28 8
30 0 15
30 1 10
30 2 16
30 3 2
30 4 19
30 5 2
30 6 11
30 7 12
30 8 14
30 9 16
30 10 7
30 11 15
30 12 17
30 13 6
30 14 9
30 15 15
30 16 13
30 17 1
30 18 13
30 19 6
30 20 1
30 21 12
30 22 13
30 23 15
30 24 2
30 25 9
30 26 7
30 27 14
30 28 17
30 29 6
31 0 19
31 1 15
31 2 2
31 3 12
31 4 9
31 5 19
31 6 18
31 7 8
31 8 10
31 9 13
31 10 12
31 11 13
31 12 4
31 13 4
31 14 15
31 15 16
31 16 17
31 17 18
31 18 13
31 19 19
31 20 5
31 21 18
31 22 17
31 23 11
31 24 8
31 25 12
31 26 10
31 27 13
31 28 6
31 29 9
31 30 17
32 0 2
32 1 8
32 2 15
32 3 11
32 4 12
32 5 9
32 6 2
32 7 12
32 8 4
32 9 9
32 10 6
32 11 5
32 12 6
32 13 14
32 14 14
32 15 14
32 16 15
32 17 19
32 18 12
32 19 14
32 20 9
32 21 7
32 22 4
32 23 17
32 24 13
32 25 12
32 26 9
32 27 12
32 28 15
32 29 14
32 30 19
32 31 9
33 0 3
33 1 19
33 2 5
33 3 6
33 4 13
33 5 3
33 6 15
33 7 10
33 8 4
33 9 5
33 10 4
33 11 8
33 12 14
33 13 1
33 14 3
33 15 5
33 16 4
33 17 3
33 18 11
33 19 2
33 20 5
33 21 17
33 22 9
33 23 7
33 24 12
33 25 11
33 26 5
33 27 1
33 28 15
33 29 1
33 30 11
33 31 1
33 32 1
34 0 12
34 1 15
34 2 12
34 3 8
34 4 19
34 5 14
34 6 3
34 7 10
34 8 19
34 9 10
34 10 10
34 11 3
34 12 4
34 13 11
34 14 16
34 15 13
34 16 10
34 17 5
34 18 19
34 19 4
34 20 1
34 21 6
34 22 14
34 23 10
34 24 18
34 25 1
34 26 16
34 27 5
34 28 18
34 29 9
34 30 15
34 31 18
34 32 1
34 33 8
35 0 11
35 1 13
35 2 7
35 3 11
35 4 4
35 5 18
35 6 16
35 7 19
35 8 6
35 9 6
35 10 13
35 11 14
35 12 19
35 13 11
35 14 7
35 15 1
35 16 7
35 17 1
35 18 8
35 19 12
35 20 3
35 21 8
35 22 3
35 23 19
35 24 6
35 25 7
35 26 19
35 27 6
35 28 17
35 29 16
35 30 16
35 31 13
35 32 19
35 33 8
35 34 3
36 0 19
36 1 19
36 2 4
36 3 19
36 4 1
36 5 8
36 6 18
36 7 7
36 8 6
36 9 17
36 10 3
36 11 19
36 12 8
36 13 15
36 14 2
36 15 11
36 16 4
36 17 10
36 18 5
36 19 15
36 20 16
36 21 12
36 22 3
36 23 13
36 24 2
36 25 1
36 26 18
36 27 19
36 28 16
36 29 2
36 30 4
36 31 16
36 32 19
36 33 6
36 34 3
36 35 4
37 0 7
37 1 13
37 2 14
37 3 8
37 4 2
37 5 3
37 6 19
37 7 15
37 8 6
37 9 1
37 10 6
37 11 2
37 12 12
37 13 4
37 14 9
37 15 9
37 16 19
37 17 17
37 18 4
37 19 16
37 20 13
37 21 4
37 22 15
37 23 13
37 24 7
37 25 5
37 26 9
37 27 2
37 28 6
37 29 8
37 30 6
37 31 14
37 32 3
37 33 5
37 34 16
37 35 13
37 36 7
38 0 14
38 1 5
38 2 12
38 3 9
38 4 2
38 5 12
38 6 18
38 7 18
38 8 12
38 9 2
38 10 14
38 11 1
38 12 12
38 13 7
38 14 14
38 15 2
38 16 13
38 17 13
38 18 4
38 19 2
38 20 19
38 21 15
38 22 13
38 23 8
38 24 9
38 25 16
38 26 19
38 27 2
38 28 1
38 29 3
38 30 18
38 31 3
38 32 10
38 33 18
38 34 16
38 35 13
38 36 17
38 37 5
39 0 13
39 1 12
39 2 5
39 3 3
39 4 14
39 5 17
39 6 14
39 7 10
39 8 13
39 9 13
39 10 10
39 11 18
39 12 14
39 13 9
39 14 7
39 15 1
39 16 18
39 17 3
39 18 14
39 19 1
39 20 11
39 21 19
39 22 18
39 23 9
39 24 6
39 25 8
39 26 5
39 27 4
39 28 18
39 29 18
39 30 15
39 31 17
39 32 17
39 33 1
39 34 7
39 35 13
39 36 19
39 37 18
39 38 4
40 0 10
40 1 17
40 2 9
40 3 11
40 4 2
40 5 17
40 6 18
40 7 5
40 8 17
40 9 19
40 10 15
40 11 17
40 12 9
40 13 12
40 14 19
40 15 18
40 16 17
40 17 5
40 18 10
40 19 7
40 20 12
40 21 10
40 22 16
40 23 14
40 24 2
40 25 5
40 26 12
40 27 14
40 28 7
40 29 4
40 30 13
40 31 18
40 32 15
40 33 4
40 34 7
40 35 4
40 36 6
40 37 14
40 38 2
40 39 13
41 0 16
41 1 5
41 2 5
41 3 3
41 4 8
41 5 3
41 6 11
41 7 15
41 8 1
41 9 4
41 10 8
41 11 10
41 12 9
41 13 17
41 14 18
41 15 19
41 16 11
41 17 2
41 18 7
41 19 8
41 20 12
41 21 3
41 22 14
41 23 11
41 24 4
41 25 19
41 26 12
41 27 18
41 28 9
41 29 11
41 30 4
41 31 16
41 32 15
41 33 4
41 34 14
41 35 1
41 36 19
41 37 5
41 38 4
41 39 15
41 40 7
42 0 11
42 1 15
42 2 12
42 3 16
42 4 17
42 5 16
42 6 14
42 7 7
42 8 8
42 9 14
42 10 13
42 11 17
42 12 3
42 13 2
42 14 19
42 15 14
42 16 13
42 17 17
42 18 8
42 19 13
42 20 11
42 21 3
42 22 15
42 23 1
42 24 7
42 25 11
42 26 18
42 27 10
42 28 7
42 29 8
42 30 13
42 31 6
42 32 4
42 33 12
42 34 11
42 35 6
42 36 14
42 37 13
42 38 16
42 39 4
42 40 6
42 41 6
43 0 12
43 1 17
43 2 5
43 3 13
43 4 11
43 5 12
43 6 17
43 7 12
43 8 4
43 9 8
43 10 12
43 11 19
43 12 8
43 13 15
43 14 16
43 15 14
43 16 2
43 17 16
43 18 14
43 19 3
43 20 4
43 21 16
43 22 9
43 23 6
43 24 16
43 25 17
43 26 14
43 27 3
43 28 17
43 29 13
43 30 2
43 31 15
43 32 19
43 33 2
43 34 13
43 35 5
43 36 11
43 37 9
43 38 17
43 39 8
43 40 5
43 41 14
43 42 3
44 0 1
44 1 18
44 2 4
44 3 5
44 4 2
44 5 4
44 6 7
44 7 6
44 8 19
44 9 2
44 10 10
44 11 17
44 12 15
44 13 10
44 14 8
44 15 3
44 16 2
44 17 16
44 18 15
44 19 19
44 20 12
44 21 19
44 22 14
44 23 17
44 24 19
44 25 1
44 26 15
44 27 11
44 28 2
44 29 4
44 30 16
44 31 18
44 32 7
44 33 15
44 34 19
44 35 10
44 36 14
44 37 9
44 38 16
44 39 12
44 40 10
44 41 14
44 42 15
44 43 16
45 0 3
45 1 19
45 2 14
45 3 16
45 4 11
45 5 12
45 6 16
45 7 15
45 8 15
45 9 3
45 10 4
45 11 2
45 12 14
45 13 12
45 14 3
45 15 4
45 16 5
45 17 12
45 18 19
45 19 12
45 20 16
45 21 10
45 22 6
45 23 12
45 24 3
45 25 1
45 26 19
45 27 8
45 28 9
45 29 19
45 30 8
45 31 11
45 32 14
45 33 13
45 34 5
45 35 3
45 36 3
45 37 5
45 38 2
45 39 13
45 40 10
45 41 16
45 42 9
45 43 3
45 44 19
46 0 6
46 1 11
46 2 1
46 3 4
46 4 3
46 5 2
46 6 19
46 7 11
46 8 9
46 9 9
46 10 5
46 11 11
46 12 3
46 13 7
46 14 7
46 15 3
46 16 17
46 17 11
46 18 15
46 19 8
46 20 15
46 21 18
46 22 13
46 23 5
46 24 7
46 25 15
46 26 4
46 27 9
46 28 7
46 29 1
46 30 10
46 31 12
46 32 7
46 33 10
46 34 8
46 35 13
46 36 2
46 37 15
46 38 3
46 39 3
46 40 10
46 41 15
46 42 15
46 43 5
46 44 11
46 45 5
47 0 3
47 1 13
47 2 13
47 3 6
47 4 9
47 5 15
47 6 5
47 7 13
47 8 2
47 9 10
47 10 1
47 11 10
47 12 15
47 13 15
47 14 11
47 15 13
47 16 12
47 17 16
47 18 14
47 19 11
47 20 5
47 21 13
47 22 9
47 23 15
47 24 17
47 25 19
47 26 18
47 27 4
47 28 18
47 29 13
47 30 11
47 31 5
47 32 18
47 33 4
47 34 6
47 35 13
47 36 15
47 37 14
47 38 8
47 39 11
47 40 15
47 41 16
47 42 13
47 43 11
47 44 13
47 45 12
47 46 12
48 0 5
48 1 2
48 2 12
48 3 5
48 4 7
48 5 1
48 6 2
48 7 6
48 8 5
48 9 1
48 10 8
48 11 3
48 12 7
48 13 14
48 14 18
48 15 14
48 16 4
48 17 7
48 18 6
48 19 5
48 20 3
48 21 11
48 22 9
48 23 14
48 24 7
48 25 14
48 26 16
48 27 13
48 28 2
48 29 13
48 30 8
48 31 16
48 32 5
48 33 5
48 34 16
48 35 4
48 36 3
48 37 7
48 38 16
48 39 19
48 40 18
48 41 8
48 42 3
48 43 10
48 44 19
48 45 18
48 46 2
48 47 11
49 0 15
49 1 4
49 2 2
49 3 10
49 4 12
49 5 11
49 6 15
49 7 13
49 8 9
49 9 7
49 10 4
49 11 6
49 12 9
49 13 16
49 14 18
49 15 10
49 16 2
49 17 1
49 18 15
49 19 2
49 20 17
49 21 19
49 22 19
49 23 11
49 24 10
49 25 13
49 26 9
49 27 2
49 28 5
49 29 3
49 30 3
49 31 9
49 32 12
49 33 4
49 34 15
49 35 3
49 36 4
49 37 13
49 38 12
49 39 10
49 40 6
49 41 3
49 42 13
49 43 7
49 44 10
49 45 10
49 46 18
49 47 11
49 48 5
50 0 12
50 1 4
50 2 11
50 3 11
50 4 9
50 5 9
50 6 17
50 7 16
50 8 17
50 9 12
50 10 9
50 11 14
50 12 10
50 13 13
50 14 9
50 15 13
50 16 14
50 17 10
50 18 4
50 19 18
50 20 4
50 21 19
50 22 19
50 23 16
50 24 11
50 25 13
50 26 2
50 27 17
50 28 16
50 29 2
50 30 7
50 31 12
50 32 8
50 33 15
50 34 18
50 35 10
50 36 17
50 37 16
50 38 1
50 39 7
50 40 11
50 41 19
50 42 8
50 43 2
50 44 8
50 45 17
50 46 15
50 47 9
50 48 16
50 49 4
51 0 8
51 1 9
51 2 6
51 3 9
51 4 4
51 5 10
51 6 15
51 7 7
51 8 18
51 9 4
51 10 11
51 11 9
51 12 14
51 13 17
51 14 14
51 15 4
51 16 6
51 17 13
51 18 14
51 19 1
51 20 11
51 21 5
51 22 5
51 23 5
51 24 17
51 25 1
51 26 7
51 27 18
51 28 19
51 29 5
51 30 14
51 31 6
51 32 18
51 33 2
51 34 1
51 35 10
51 36 5
51 37 13
51 38 8
51 39 19
51 40 3
51 41 9
51 42 2
51 43 13
51 44 5
51 45 12
51 46 9
51 47 13
51 48 1
51 49 18
51 50 14
52 0 5
52 1 16
52 2 12
52 3 8
52 4 1
52 5 12
52 6 17
52 7 11
52 8 7
52 9 10
52 10 10
52 11 16
52 12 10
52 13 9
52 14 7
52 15 16
52 16 10
52 17 7
52 18 19
52 19 9
52 20 3
52 21 15
52 22 3
52 23 17
52 24 6
52 25 12
52 26 13
52 27 1
52 28 1
52 29 14
52 30 6
52 31 9
52 32 10
52 33 18
52 34 2
52 35 1
52 36 17
52 37 17
52 38 10
52 39 2
52 40 2
52 41 9
52 42 3
52 43 6
52 44 13
52 45 8
52 46 15
52 47 13
52 48 8
52 49 2
52 50 10
52 51 16
53 0 3
53 1 10
53 2 16
53 3 11
53 4 2
53 5 18
53 6 10
53 7 3
53 8 3
53 9 18
53 10 4
53 11 4
53 12 16
53 13 13
53 14 15
53 15 16
53 16 11
53 17 10
53 18 1
53 19 6
53 20 19
53 21 10
53 22 12
53 23 18
53 24 7
53 25 7
53 26 16
53 27 9
53 28 11
53 29 14
53 30 1
53 31 7
53 32 4
53 33 2
53 34 1
53 35 10
53 36 7
53 37 14
53 38 6
53 39 10
53 40 1
53 41 17
53 42 17
53 43 16
53 44 9
53 45 1
53 46 15
53 47 10
53 48 10
53 49 7
53 50 13
53 51 14
53 52 19
54 0 10
54 1 10
54 2 2
54 3 19
54 4 6
54 5 12
54 6 3
54 7 10
54 8 11
54 9 8
54 10 9
54 11 12
54 12 11
54 13 17
54 14 14
54 15 18
54 16 15
54 17 10
54 18 13
54 19 6
54 20 9
54 21 11
54 22 8
54 23 6
54 24 5
54 25 6
54 26 15
54 27 18
54 28 6
54 29 7
54 30 19
54 31 7
54 32 9
54 33 11
54 34 4
54 35 3
54 36 13
54 37 9
54 38 3
54 39 15
54 40 2
54 41 16
54 42 19
54 43 9
54 44 12
54 45 4
54 46 8
54 47 18
54 48 14
54 49 15
54 50 13
54 51 8
54 52 13
54 53 15
55 0 4
55 1 1
55 2 7
55 3 1
55 4 6
55 5 5
55 6 1
55 7 17
55 8 6
55 9 3
55 10 5
55 11 1
55 12 14
55 13 18
55 14 4
55 15 3
55 16 11
55 17 10
55 18 8
55 19 2
55 20 18
55 21 6
55 22 13
55 23 14
55 24 4
55 25 11
55 26 1
55 27 10
55 28 1
55 29 16
55 30 14
55 31 12
55 32 3
55 33 9
55 34 2
55 35 9
55 36 4
55 37 5
55 38 14
55 39 3
55 40 12
55 41 5
55 42 5
55 43 1
55 44 16
55 45 1
55 46 9
55 47 5
55 48 13
55 49 11
55 50 6
55 51 16
55 52 5
55 53 17
55 54 13
56 0 12
56 1 9
56 2 14
56 3 10
56 4 3
56 5 8
56 6 8
56 7 12
56 8 1
56 9 18
56 10 16
56 11 14
56 12 18
56 13 18
56 14 8
56 15 14
56 16 10
56 17 2
56 18 17
56 19 6
56 20 16
56 21 6
56 22 7
56 23 17
56 24 4
56 25 12
56 26 16
56 27 16
56 28 16
56 29 13
56 30 6
56 31 10
56 32 10
56 33 6
56 34 5
56 35 9
56 36 4
56 37 7
56 38 14
56 39 2
56 40 4
56 41 12
56 42 2
56 43 11
56 44 6
56 45 2
56 46 4
56 47 13
56 48 1
56 49 19
56 50 13
56 51 9
56 52 16
56 53 5
56 54 19
56 55 6
57 0 15
57 1 10
57 2 13
57 3 6
57 4 9
57 5 8
57 6 4
57 7 6
57 8 19
57 9 8
57 10 19
57 11 3
57 12 15
57 13 4
57 14 5
57 15 3
57 16 11
57 17 9
57 18 3
57 19 3
57 20 16
57 21 6
57 22 6
57 23 19
57 24 15
57 25 9
57 26 2
57 27 13
57 28 8
57 29 17
57 30 10
57 31 1
57 32 8
57 33 19
57 34 16
57 35 15
57 36 11
57 37 1
57 38 5
57 39 14
57 40 12
57 41 13
57 42 6
57 43 14
57 44 16
57 45 13
57 46 14
57 47 3
57 48 9
57 49 13
57 50 3
57 51 15
57 52 15
57 53 14
57 54 2
57 55 13
57 56 1
58 0 9
58 1 14
58 2 14
58 3 12
58 4 5
58 5 11
58 6 6
58 7 4
58 8 2
58 9 3
58 10 2
58 11 6
58 12 2
58 13 2
58 14 3
58 15 11
58 16 1
58 17 5
58 18 19
58 19 7
58 20 18
58 21 6
58 22 7
58 23 1
58 24 4
58 25 14
58 26 4
58 27 10
58 28 2
58 29 11
58 30 5
58 31 15
58 32 3
58 33 9
58 34 18
58 35 17
58 36 2
58 37 15
58 38 8
58 39 10
58 40 18
58 41 11
58 42 12
58 43 15
58 44 3
58 45 1
58 46 5
58 47 11
58 48 6
58 49 18
58 50 1
58 51 11
58 52 1
58 53 18
58 54 16
58 55 15
58 56 13
58 57 10
59 0 14
59 1 15
59 2 7
59 3 17
59 4 9
59 5 13
59 6 2
59 7 16
59 8 14
59 9 1
59 10 13
59 11 5
59 12 2
59 13 2
59 14 12
59 15 9
59 16 16
59 17 19
59 18 5
59 19 19
59 20 12
59 21 7
59 22 17
59 23 12
59 24 8
59 25 11
59 26 19
59 27 13
59 28 3
59 29 15
59 30 15
59 31 1
59 32 12
59 33 1
59 34 10
59 35 14
59 36 19
59 37 11
59 38 15
59 39 6
59 40 18
59 41 14
59 42 7
59 43 15
59 44 14
59 45 7
59 46 16
59 47 18
59 48 8
59 49 11
59 50 1
59 51 1
59 52 19
59 53 19
59 54 13
59 55 6
59 56 8
59 57 4
59 58 9
60 0 18
60 1 5
60 2 17
60 3 10
60 4 5
60 5 4
60 6 16
60 7 7
60 8 4
60 9 5
60 10 14
60 11 12
60 12 9
60 13 19
60 14 13
60 15 14
60 16 3
60 17 15
60 18 13
60 19 18
60 20 4
60 21 13
60 22 7
60 23 4
60 24 7
60 25 12
60 26 18
60 27 12
60 28 12
60 29 4
60 30 10
60 31 6
60 32 14
60 33 3
60 34 1
60 35 12
60 36 17
60 37 9
60 38 17
60 39 7
60 40 11
60 41 7
60 42 1
60 43 8
60 44 11
60 45 3
60 46 18
60 47 18
60 48 9
60 49 14
60 50 13
60 51 8
60 52 13
60 53 14
60 54 11
60 55 12
60 56 18
60 57 4
60 58 13
60 59 14
61 0 9
61 1 8
61 2 3
61 3 17
61 4 18
61 5 16
61 6 14
61 7 13
61 8 9
61 9 17
61 10 9
61 11 5
61 12 4
61 13 13
61 14 9
61 15 9
61 16 8
61 17 19
61 18 4
61 19 16
61 20 4
61 21 18
61 22 12
61 23 17
61 24 9
61 25 17
61 26 3
61 27 14
61 28 8
61 29 13
61 30 13
61 31 13
61 32 2
61 33 4
61 34 9
61 35 5
61 36 13
61 37 17
61 38 17
61 39 9
61 40 16
61 41 4
61 42 14
61 43 2
61 44 19
61 45 12
61 46 3
61 47 3
61 48 19
61 49 8
61 50 19
61 51 12
61 52 18
61 53 5
61 54 8
61 55 13
61 56 7
61 57 14
61 58 1
61 59 12
61 60 15
